5173
500000
333122
333122
333122
333122
333122
333122
333122
333122
333122
333122
333122
333122
333122
333122
333122
332660
332660
332660
332660
332660
332660
332660
332660
332660
332660
332660
332660
332660
332651
332651
332651
332651
332651
332651
332651
332651
332651
332651
332651
332461
332461
332461
332461
332461
332461
332014
332014
332014
332014
332014
332014
332014
332014
332014
332014
332014
332014
332014
332014
332014
332014
330626
330626
330626
330626
330626
330626
330626
330208
330208
330208
329738
329738
329738
329738
329738
329738
329738
329738
329738
329738
329738
329738
329738
329738
327524
327524
327524
327524
327524
327524
327524
327524
327524
327524
327413
327218
327218
327218
327218
327218
327218
327218
327218
327218
327218
327218
327218
327218
327218
327218
327218
327218
325769
325769
325769
325769
325769
325769
325769
325467
325467
325467
325467
325467
325467
325467
325467
325467
325467
325467
325467
325467
325353
325353
325039
325039
325039
325039
325039
325039
325039
325008
325008
325008
325008
325008
325008
325008
325008
325008
325008
325008
325008
324956
324956
324956
324956
324956
324956
324956
324956
324956
324956
324956
324956
324956
324956
324956
324956
324956
324956
324956
323569
323569
323569
323478
323478
323478
323478
323478
323478
323478
323478
323478
323279
323279
323279
323279
323279
323279
323279
323279
323279
323279
323279
323029
323029
323029
323029
323029
322910
322910
322910
322910
322910
322910
322910
322910
322910
322910
322910
322910
322910
322910
322910
322608
322608
322608
322608
322608
322608
322608
322608
322608
322300
322300
322300
322300
322300
322300
322300
322300
322300
322300
322300
322300
322300
322300
322300
322300
322300
322300
319388
319388
319388
319388
319388
319388
319388
319388
319388
319388
319388
319388
319388
319388
319388
319388
319388
319388
319388
319325
319325
319325
319325
319325
319325
319325
319325
319325
319325
319325
319325
319325
319325
319325
319325
319268
319268
319268
319268
319268
319268
319268
319268
318955
318955
318955
318955
318955
318955
318955
318955
318771
318771
318771
318771
318771
318771
318771
318771
318771
318562
318562
318562
318562
318562
318562
318562
318562
318562
318467
318467
318467
318467
316510
316510
316510
316510
316510
316510
316510
316510
316510
316510
316510
316510
316510
316510
316187
316187
316187
316187
316187
316187
316187
314826
314826
314826
314826
314826
314826
314826
314826
312040
312040
312040
312040
312040
312040
312040
312040
312040
312040
312040
312040
312040
312040
312040
312040
311896
311896
311896
311896
311896
311896
311896
311896
311896
311896
311896
311896
311896
311896
311896
311896
311896
311896
311896
311896
311433
311433
311433
311433
311433
311433
311433
311433
311433
311433
311433
311433
311433
311433
311308
311308
311308
311308
311308
311308
311138
311138
311138
311138
311138
310431
310431
310431
310431
310431
310431
310387
310387
310387
310387
310387
310387
310387
310387
310387
310387
310387
310387
310387
310387
310387
310387
310387
310387
310251
310251
310251
310251
310251
310251
310251
310251
310251
310251
310251
310251
310251
309675
309675
309675
309675
309675
309675
309486
309486
309480
309480
309480
309480
309480
309480
309480
309480
309480
309480
308454
308454
308454
308454
308454
308454
308454
308454
308198
308198
308198
308198
308198
308198
308198
308198
308198
308198
308198
308198
308198
308198
308198
307670
307670
307670
307670
307670
307670
307670
307070
307070
307070
307070
307070
307070
307070
307070
307070
307070
307070
307070
307070
307070
307070
307070
307070
307070
307070
307070
306605
306605
306605
306605
306326
306326
306326
306326
306326
306326
306326
306326
306326
306326
306326
306326
306326
306326
306326
306326
306326
306326
306326
306128
306128
306128
306128
304228
304228
304228
304228
304228
304228
304228
304228
304228
304228
304228
304228
304228
304228
304228
304228
303939
303939
303939
303939
303939
303939
303939
303939
303939
303939
303939
303939
303939
303939
303939
303939
303939
303693
303560
303560
303560
303560
303560
303560
303560
303560
303560
303560
303560
303560
303560
303560
303560
303560
303560
303560
303560
303194
303194
303194
303194
303194
303194
303194
303194
303194
303194
303194
303194
303194
303194
303194
303194
303194
303194
303194
302304
302304
302304
302304
302304
302304
302304
302304
302108
301520
301520
301520
301520
301520
301520
301520
301520
301520
301520
301520
301520
301520
301520
301520
301520
301520
301520
301520
301520
301461
301461
301461
301461
301461
301461
301461
301461
301461
301461
301461
301461
301461
300576
300576
300427
300427
300427
300427
300427
300427
300427
300427
300427
300427
300427
300427
300427
300427
300427
300427
300427
300427
298966
298966
298966
298966
298966
298966
298966
298966
298966
298966
298966
298966
298966
298966
298966
298966
298340
298340
297958
297958
297958
297958
297958
297272
297272
297272
297272
297272
297272
297272
297272
297272
297272
297272
297272
297272
297272
297272
296909
296909
296909
296909
296909
296909
296909
296909
296909
296909
296909
296909
296909
296909
296909
296909
296909
296909
296909
295909
295909
295909
295909
295731
295731
295731
295731
295731
295731
295731
295731
295731
295285
295285
295285
295285
295285
295285
295285
295285
295285
295285
295285
295285
295285
295285
295285
295285
294920
294920
294920
294920
294920
294920
294920
294920
294920
294920
294298
294298
294298
294298
294298
294298
294298
294298
294298
293850
293681
293681
293681
293681
293449
293449
293449
293449
293449
293449
293449
293449
293449
293449
293449
293449
293449
292901
292901
292901
292901
292901
292901
292901
292901
292901
292649
292649
290973
290973
290973
290973
290973
290973
290973
290973
290973
290973
290973
290973
290973
290973
290973
290973
290973
290973
290501
290501
290501
290501
290501
290501
290501
290501
290501
290501
290501
290501
290108
290108
290108
290108
290108
289910
289910
289910
289910
289910
289910
289910
289910
289910
289910
289910
289910
289910
289910
289910
289910
289910
289910
289910
289910
289191
289191
289191
289191
289191
289191
289191
289191
289191
289191
289191
289191
289191
289191
289191
289191
289191
289191
289191
289186
289186
289186
289186
288034
288034
288034
288034
288034
288034
288034
288034
288034
288034
288034
288034
288034
288034
288034
287904
287904
287904
287904
287904
287737
287737
287737
287737
287737
287737
287737
287737
287737
287737
287737
287737
287517
287517
287517
287517
287517
287517
287517
287517
287517
287517
287517
287517
287187
287187
287034
287034
286893
286893
286893
286173
286173
285216
285216
285216
285216
285216
285216
285216
285216
285216
285216
285216
285216
285216
285216
285216
285216
285216
285216
285216
285201
285201
285201
285201
285201
285201
284417
284417
284417
284417
283598
283522
283522
283522
283522
283522
283522
283522
283522
283522
282014
282014
282014
282014
282014
282014
282014
282014
282014
281700
281700
281700
281700
281700
281700
281700
281700
281700
281700
281700
281700
281339
281339
281339
281339
281339
281339
281339
281339
281339
281339
280842
280842
280842
280842
280842
280842
280842
280842
280842
280581
280581
280581
280581
280581
280581
280581
280581
280581
280581
280581
280581
280581
280581
280581
280192
280192
280192
280192
280192
280192
280192
280192
280192
280192
280192
280192
280192
280058
280058
280058
280058
280058
280058
280058
280058
280058
280058
280058
280058
280058
280058
280058
280058
280058
280058
279080
277255
277255
277255
277255
277255
277255
277255
277255
277255
277255
277255
277255
277255
277255
277255
277255
277255
277255
277255
277255
277156
277156
277156
277156
277156
277156
276880
276880
276880
276712
276712
276712
276712
276712
276712
276712
276712
274674
274674
274674
274674
274674
274674
274674
274674
274674
274674
274674
274674
274674
274674
274674
274674
274674
274674
274211
274211
274211
274211
274211
274211
274211
274211
274211
274211
274211
274211
274211
274211
274049
274049
274049
274049
274049
274049
274049
274049
274049
274049
274049
274049
274049
274049
273921
273921
273921
273921
273921
273921
273921
273921
273921
273921
273921
273921
273921
273921
273568
273568
273568
273568
273568
273568
273568
273568
273568
273568
273568
273568
273568
273568
273568
273568
273568
273568
273568
273261
273261
273261
273261
273261
273261
273261
273261
273261
273261
273261
273101
273101
273101
273040
273040
273040
273040
273040
273040
273040
273040
273040
273040
273040
273040
273040
273040
273040
273040
273040
272538
272538
272538
272538
272538
272538
272054
272054
272054
272054
272054
272054
272054
271639
271639
271639
271639
271639
271639
271639
271639
271639
270461
270461
270461
270461
270461
270461
270461
270461
270461
270461
270461
270461
270461
270461
270461
270461
270461
270461
270461
268295
268295
268295
268295
268295
268295
268295
268295
268295
268295
268295
268295
268295
268295
268295
268065
268065
268065
268065
268065
268065
268065
267739
267739
267739
267739
267739
267739
267739
267739
267739
267739
267739
267739
267739
267739
267739
267739
267739
267739
267739
267601
267601
267601
267601
267601
267601
267601
267601
267601
267601
267601
267601
267601
267601
267601
267601
267601
267601
267601
267601
267183
267183
267183
266890
266890
266890
266890
266890
266890
266890
266890
266890
266890
266890
266890
266890
265955
265955
265955
265955
265644
265644
265644
265644
265644
265644
265644
265644
265644
265644
265519
265519
265519
265519
265519
265519
265519
265519
265519
265519
265519
265519
265519
265519
265519
265519
265519
265482
265482
265482
265482
265482
265482
265482
265482
265482
265482
265482
265482
265477
264850
264850
264850
264850
264850
264850
264850
264850
264850
264850
264850
264850
264850
264850
264850
264850
264850
264850
264850
264804
264804
264804
263759
263759
263759
263759
263759
263759
263759
263759
263759
263759
263759
263759
263759
262103
261401
261401
261331
261331
261331
261331
261331
261331
261331
261331
261331
261331
261331
261331
261331
261331
261331
261331
261331
260696
260696
260696
260696
260696
260696
260696
260696
260696
260696
260696
260696
260696
260696
260696
260696
260696
260696
260696
260357
260357
260357
260357
260318
260318
260318
260318
260318
260318
260318
260318
260318
260318
260318
260318
260318
260318
260318
260318
260318
260318
260318
260215
260215
260215
260215
260215
260215
260215
260215
260215
260215
260215
260215
260215
260215
260215
260215
260215
260215
260215
260215
259736
259736
259736
259736
259736
259403
259403
259403
259403
259403
259403
259403
259403
259403
259403
259403
259403
259403
259403
259403
259403
258454
258454
258454
258454
258454
258454
258454
258454
258454
258454
258454
258454
258454
258454
258303
258303
258303
258303
258303
258303
258303
258303
258303
258303
258303
258303
258303
258303
258303
258303
258303
258303
258303
256668
256668
256668
256425
256425
256425
256425
256425
256425
256425
256425
256333
256333
256333
256333
256333
256333
256333
256333
256333
256333
256333
256333
256333
256333
256333
256333
256333
255478
255478
255478
255478
255478
255478
255005
255005
255005
255005
255005
255005
255005
255005
255005
255005
255005
255005
255005
255005
254963
254963
254963
254963
254963
254963
254963
254963
254963
254963
254963
254963
254963
254963
254963
254963
253580
253580
253580
253580
253580
253580
253580
253580
253580
253580
253580
253580
253580
253006
253006
253006
253006
253006
253006
253006
253006
253006
253006
253006
253006
253006
253006
253006
252440
252440
252440
252440
252440
252440
252440
252440
252440
252440
252440
252089
252089
252089
252089
252089
252089
252089
252089
252089
252089
252089
252089
252089
252089
252089
252089
251055
251055
251055
251055
251055
251055
251055
250742
250742
250742
250742
250500
250500
250500
250500
250500
250331
250331
250331
250331
250331
250331
250331
250331
250331
250331
250331
250331
250331
250331
250331
250331
250229
250229
250229
250229
250229
250229
250229
250229
250229
250229
250229
250229
250229
250229
250229
250229
250229
250229
250229
250229
249952
249952
249952
249952
249952
249952
249952
249948
249948
249948
249948
249948
249948
249948
249948
249948
249948
249948
249348
249348
249348
249348
249348
249348
249348
249348
248932
248932
248932
248723
248723
248723
248723
248723
248723
248723
248723
248723
248723
248723
248723
248723
248723
248723
248723
248723
248723
248723
248723
246368
246368
246368
246368
246368
246368
246368
246368
246368
246368
246368
246368
246368
246368
246368
246368
246360
246360
246360
246360
246360
246360
246360
246360
244796
244796
244796
244796
244796
244796
244796
244796
244796
244796
244796
244796
244796
244796
244796
244796
244796
243777
243777
243777
243777
243777
243777
243777
243777
243777
243777
243777
243777
243673
243673
243673
243673
243673
243673
243673
243673
243673
243673
243673
243673
243673
243673
243673
243673
243673
243673
243673
242793
242793
242793
242652
242510
242510
242510
242510
242510
242510
242510
242510
242510
242510
242510
242510
242510
242510
242510
242510
242510
242510
242510
242235
242235
242235
242235
242235
242235
242235
242235
242235
242235
240149
240149
240149
240149
240149
240149
240149
240149
240149
240149
240149
240149
240149
239981
239743
239743
239743
239743
239743
239743
239743
239743
239743
239743
239743
239743
239743
239743
239743
239743
239743
239743
239358
239358
239358
239358
239358
239358
239358
239358
239358
239358
239358
239270
239270
239270
239270
239270
238285
238285
238285
238285
238285
238285
238285
238285
238285
238285
238285
238285
238285
238285
238285
238285
237310
237310
237310
237310
237310
237310
237310
237310
237310
237310
237310
237310
237310
237042
237042
237042
237042
237042
237042
237042
237042
237021
237021
237021
237021
237021
237021
236818
236818
236818
236818
236818
236818
236818
236818
236818
236818
236818
236818
236818
236818
236818
236818
236586
236586
236586
236586
236586
236586
236586
236509
236509
236509
236509
236509
236509
236509
236509
236509
236235
236235
236235
236235
236235
236235
236235
235222
235222
235222
235222
235222
235222
235222
235222
235222
235222
235222
235222
235222
235183
235183
234829
234829
234829
234829
234829
234829
234829
234829
234829
234829
234829
234829
234829
234829
234829
234672
234672
234672
234672
234672
234672
234672
234672
234672
234672
234672
234672
234672
234463
234463
234463
234463
234463
234463
234463
234463
234463
234463
234463
234463
234463
234463
234463
233956
233214
233214
233214
233214
233214
233214
233214
233214
232203
232203
232203
231541
231541
231541
231541
231541
231541
231541
231541
231541
231541
231541
231541
231541
231541
231541
231541
231541
231541
231541
231541
230962
230962
230962
230962
230962
230962
230962
230962
230659
230659
230469
230469
230469
230469
230469
230469
230469
230469
230201
230201
230201
230201
230201
230201
230201
230201
230201
230201
230201
230201
230201
230201
230201
230201
230105
230105
230105
230105
230105
230105
230105
230105
230105
230105
230105
230105
230105
230105
230105
230105
230105
230039
230039
230039
230039
230039
230039
230039
229956
229956
229956
229956
229956
229956
229956
229956
229940
229940
229940
229552
229552
229552
229552
229552
229552
229552
229552
229552
229552
229552
229552
229552
229552
229552
229552
229552
229552
227442
227442
227442
227442
227442
227442
227442
227442
227442
227442
227442
227442
227442
227442
227442
227442
227442
226436
225808
225808
225808
225808
225808
225808
225808
225808
225808
225808
225808
225808
225808
225808
225808
225808
225808
225808
225808
224405
224405
224202
224202
224202
224202
224202
224202
224202
224180
224180
224180
224180
224180
224180
224180
224180
222755
222755
222755
222755
222755
222755
222755
222755
222755
222755
222755
222755
222504
222504
222504
222504
222504
222504
222504
222504
222504
222504
222504
222504
222504
222504
222504
222504
222504
222504
222132
222132
222132
222132
222132
222132
222132
222132
222132
222132
222132
222132
222132
222132
222132
222132
222132
222132
222132
222132
222080
222080
222080
222080
222080
222080
222080
222080
222080
222080
222080
222080
222080
222080
222080
222080
222080
221982
221982
221982
221982
221982
221982
221982
221483
221483
221483
221483
221483
221483
221483
221483
221483
221483
221483
221212
221212
221212
221212
221212
221212
221212
221212
221212
221212
221212
221212
221212
221212
220848
220848
220848
220074
220074
220074
220074
220074
220074
220074
220074
220074
220074
220074
220074
220074
220074
220074
220051
220051
220051
220051
220051
220051
220051
220051
219960
219960
219960
219960
219960
219960
219960
219960
219960
219960
219960
218840
218840
218840
218840
218840
218840
218840
217872
217872
217872
217872
217872
217872
217872
217872
217872
217872
217872
217872
217872
217872
217347
217347
217347
217347
217347
217347
216649
216649
216649
216649
216649
216649
216649
216649
216649
216649
216649
216649
216649
216649
216649
216649
216649
216649
216649
216408
216408
216408
216408
216408
216408
216408
216408
216408
216408
216408
216408
216408
216408
216408
216408
216408
216408
216327
216327
216327
216327
216327
216327
216327
215886
215886
215886
215886
215886
215886
215886
215886
215886
215886
215886
215886
215886
215886
215886
215746
215746
215746
215746
215746
215746
215746
215746
215746
215746
215746
215746
215746
215746
215746
215746
215521
214550
214550
214550
214550
214550
214550
214550
214550
214550
214550
214550
214550
213812
213812
213812
213812
213812
213812
213812
213812
213812
213812
213812
213711
213711
213711
213711
213711
213711
213711
212294
212294
212294
212294
212294
212294
212294
212294
212294
212294
212294
212294
212294
212294
212294
212294
212294
211611
211611
211611
211611
211611
211611
211611
211611
211611
211611
210306
210306
210306
210306
210306
210306
210306
210306
210306
210306
210306
210306
210306
210306
210306
210306
210306
210306
210306
209661
209661
209661
209661
209661
209661
209661
209661
209661
209661
209661
209661
209661
209661
209661
209661
209661
209661
209661
209661
209428
209428
209428
209428
209428
209428
209428
208909
208909
208909
208909
208909
208909
208056
208056
208056
208056
208056
207207
207207
207207
207207
207207
207207
207207
207207
207207
207207
207207
207207
207207
207207
207207
207207
207179
207179
207179
206656
206656
206656
206513
206513
206513
206513
206513
206513
206513
206513
206513
206513
206513
206513
205444
205444
205444
205444
205444
205444
205444
205444
205444
205444
205444
205444
205444
204589
204589
204589
204589
204589
204589
204589
204261
204261
204261
204261
204261
204261
204261
204261
204261
204261
204261
204261
204261
204261
204261
204261
204261
204261
203539
203539
203539
203539
203539
203539
203539
203539
203539
203539
203539
203539
203539
203539
203539
203539
202851
202851
202851
202851
202851
202851
202851
202851
202851
202822
202822
202822
202822
202822
202822
202822
202822
202822
202822
202822
202822
202822
202822
202822
202822
202704
202704
202704
202704
202704
202704
202704
202704
202704
202704
202704
202704
202704
202704
202704
202704
202704
202704
202699
202699
202699
202699
202699
202699
202699
202699
202699
202699
202699
202699
202699
202699
202699
202699
202699
201743
201743
201743
201743
201743
201644
201644
201644
201644
201644
201644
201644
201644
201644
201644
201644
201644
201644
201644
201644
201644
201644
201644
201644
201644
201313
201313
201313
200965
200965
200176
200176
200176
200176
200176
200176
200176
200176
200176
200176
200176
200176
200176
200176
200176
200176
199074
198927
198927
198927
198927
198927
198927
198927
198927
198927
198557
198557
198087
198087
198087
198087
198087
198087
198087
198087
198087
198087
198087
198087
198087
197459
196734
196734
196734
196734
196734
196734
196734
196734
196734
196734
196734
196734
196734
196734
196734
196205
195241
195241
195241
195241
195241
195241
195241
195241
195168
195168
195168
195168
195168
195168
195168
195168
195168
195168
195168
195168
195168
195168
194501
194501
194501
194501
194501
194501
194501
194501
194501
194501
194501
194501
194501
194501
194501
194501
194501
194501
194501
193451
193451
193451
193451
193451
193451
193449
193449
193449
193449
193449
193449
193449
193449
192870
192870
192870
192870
192870
192870
192870
192870
192870
192870
192870
192870
192332
192332
192332
192332
192332
192332
192332
192332
192332
192332
192332
192332
192332
192332
192332
192332
191671
191671
191671
191671
191671
191671
191671
191465
191465
190883
190883
190883
190883
190883
190883
190883
190883
190883
190609
190609
190609
190609
190609
190609
190609
189505
189505
188883
188883
188883
188883
188883
188883
188883
188883
188776
188776
188776
188776
188776
188776
187122
187122
187122
187122
187122
187122
187122
187122
186937
186937
186937
186937
186937
186937
186937
186937
186937
186937
186937
186937
185962
185962
185962
185373
185373
184600
184600
184600
184600
184600
184600
184600
184600
184024
184024
184024
184024
184024
184024
184024
184024
184024
184024
184024
184004
184004
184004
184004
184004
184004
183958
183958
183958
183958
183958
183958
183958
183958
183958
183958
183593
183593
183593
183593
183593
183593
183593
183593
183593
183593
183593
183593
183351
183351
183133
183133
183133
183133
183133
183133
183133
183133
183133
183133
183133
183133
183133
183133
183133
183133
183133
183133
183133
182630
182630
182630
182630
182630
182630
182630
182630
182630
182283
182283
182283
182283
182283
182283
182283
182283
182283
182283
182283
182283
182283
182283
182283
182283
182283
182283
182283
180076
180076
180076
180076
179420
179420
179420
179420
179420
179420
179420
179420
179420
179420
179420
179420
179420
179420
179251
179251
179251
179251
179251
179251
179251
179251
179251
179251
179251
179251
179037
179037
179037
179037
179037
179037
179037
179037
179037
179037
179037
179025
178742
178742
178742
178742
178742
178742
178742
178742
178616
178616
178616
178616
178098
178098
178098
178098
178098
178098
178098
178098
178098
178098
178098
178098
178098
178098
177265
177265
177265
177265
177265
177265
177265
177265
177265
175970
175742
175742
175742
175742
175742
175742
175742
175742
175742
175742
175742
175742
175742
175742
175742
175742
175742
175742
175742
175742
175313
175313
175313
175313
175313
175313
175313
175313
175313
175313
175313
175313
175313
175313
175170
175133
175133
175133
175133
175133
175133
175133
175133
175133
175133
175133
175133
175133
175133
175133
175133
175133
175133
174444
174444
174444
174444
174444
174444
174444
174444
174444
174444
174444
174444
174444
174444
174444
174444
174444
174444
174444
174444
174342
174342
174342
174342
174342
174342
174342
174342
174342
174342
174342
174342
174342
174332
174332
174332
174010
174010
174010
174010
174010
174010
174010
174010
174010
174010
174010
174010
174010
174010
174010
174010
174010
174010
174010
172952
172952
172952
172952
172952
172952
172952
172952
172952
172952
172952
172952
172952
172952
172952
172311
172311
172311
172311
172311
172311
172311
172311
172311
172311
172311
172311
172311
172311
172311
170337
170337
170337
170337
170337
170337
170337
170337
170337
170038
170038
170038
170038
170038
170038
170038
170038
170038
170038
170038
169985
169979
169979
169979
169979
169979
169979
169979
169979
169979
169979
169979
169979
169979
169979
169979
169979
169637
169637
169637
169637
169637
169637
169637
169637
169637
169637
169637
169637
169637
169637
169637
169637
169637
169637
169637
168879
168879
168879
168879
168879
168879
168879
168879
168879
168879
168879
168879
168879
168879
168879
168793
168793
168793
168793
168793
168793
167577
167577
167577
167577
167577
167577
167577
167577
167577
167577
167577
167577
167577
167111
167111
167004
167004
167004
167004
167004
167004
167004
167004
167004
167004
167004
167004
167004
167004
167004
167004
167004
167004
167004
167004
166567
166567
166567
166567
166567
166567
166567
166567
166340
166340
166340
166340
166340
166340
166340
166340
165811
165811
165811
165811
165811
165811
165568
165568
165568
165568
165568
165568
165568
165568
165510
165510
165510
165510
165510
165510
165510
165510
165339
165339
165339
165339
165339
165339
165339
165339
165339
165339
165339
165339
165339
165339
165339
165339
165339
165285
165285
165285
165285
165250
165250
165250
165250
165250
165250
165250
165250
165250
165250
165250
165250
165250
165250
165250
165250
165250
165250
164902
164902
164902
164230
164230
164230
164070
164070
164070
164070
164070
164070
164070
164070
162617
162617
162617
162617
161124
161124
161124
161124
161124
161124
161124
161124
161124
161124
161124
161124
161124
161124
161124
161124
161124
161124
161124
161082
161082
161082
160143
160143
160143
160143
160143
160143
160143
160143
160143
159750
159750
159750
159750
159750
159750
159750
159750
159750
159750
159697
159697
159697
159697
159697
159697
159459
159459
159459
159459
158874
158874
158874
158874
158874
158874
158874
158874
158874
158874
158874
158874
158874
158874
158874
158874
158702
158702
158606
158606
158606
158606
158606
158606
158606
158606
158606
158606
158606
158606
158606
158606
158453
158453
158453
158453
158453
154161
154161
154161
154161
154161
154161
152893
152893
152893
152893
152212
152212
152212
152212
152212
152212
152212
152212
152212
151122
151122
151122
151082
151082
151082
151082
151082
151082
151082
151082
151082
151082
151082
151082
151082
151082
151082
151082
151082
150780
150780
150780
150780
150780
150780
150490
150490
150490
150490
150186
150186
150186
150186
150186
150186
149561
149561
149561
149246
149246
149246
149246
149246
149246
149246
149246
149246
149246
149246
149246
149246
149246
149042
149042
149042
149042
149042
149042
149042
149042
149042
148738
148738
148738
148738
148738
147342
147342
146328
146328
146328
146328
146328
146328
146328
146328
146328
146328
146328
146328
146328
146328
146328
145875
145875
145875
145875
145875
145875
145875
145875
145875
145875
145875
144692
144692
144692
144692
144692
144692
144692
144692
144692
144427
144427
144427
144427
144427
144427
144176
144176
144176
144176
144176
144176
144176
144176
144176
144176
144176
144176
144176
144176
144176
144176
144176
144176
143104
143104
143104
142888
142888
142888
142839
142839
142839
142839
142839
142839
142839
142839
142839
142839
142839
142774
142774
142774
142774
142299
142299
142299
142299
142299
142299
142299
142299
142299
142299
142299
142270
142270
142270
142270
142270
142270
142270
142270
142270
142270
142270
142270
142270
141945
141945
141945
141549
141549
140710
140710
140710
140710
140710
140710
139786
139786
139786
139786
139786
139786
139786
139786
139772
139772
139772
139772
139772
139772
139772
139772
139772
139772
139772
139772
139772
139772
139772
139772
139772
139772
139772
139726
139726
139726
139726
139726
139726
139726
139726
139726
139726
139726
139726
139726
139726
139602
139602
139602
139602
139602
139602
139602
139093
139093
139093
139093
139093
139093
139093
139093
139093
139093
139093
139093
139093
139093
139093
139093
139093
139093
138493
138130
138130
138130
138130
138130
138130
138130
138130
138130
137915
137915
137915
137915
137915
137915
137915
137392
137392
137392
137392
137392
137392
137392
137392
137392
137329
137329
137329
137329
137329
137329
137329
137329
137329
137329
137329
137329
137329
137329
137329
137329
137329
137329
135360
135360
135360
135360
135360
135360
135360
135360
135360
135360
134977
134977
134977
134977
134977
134977
134977
134977
134977
134977
134977
134977
134781
134781
134781
134781
134781
134781
134781
134781
134781
134781
134781
134781
134781
133703
133703
133703
133703
133703
133703
133703
133703
133703
133703
133703
133703
133703
133703
133577
133577
133577
133577
133577
133577
133577
133577
133577
133577
133577
133577
133577
133577
133577
133577
133577
133427
133427
133427
133427
133427
133427
133427
133427
133427
133427
133427
133427
133427
133427
133427
133427
133427
133262
133262
133262
133262
133262
133262
133262
133262
133262
133262
133262
133262
133262
133262
133262
133262
133262
133262
133262
132812
132812
132812
132812
132812
132812
132812
132812
132812
132812
132812
132812
132812
132812
132812
132307
132307
132307
132307
132307
132307
132307
132307
132307
132307
132307
132307
132307
132307
132211
132211
132211
132211
132211
132211
132211
132211
132211
132211
132211
132211
132211
132211
132211
132211
132211
132211
132211
132211
130130
130130
130130
130130
130130
130130
130130
130130
130130
130130
130130
130130
130130
130130
130013
130013
130013
130013
130013
130013
130013
130013
130013
130013
130013
130013
130013
130013
130013
130013
130013
129947
129947
129947
129947
129947
129947
129947
129947
129947
129947
129947
129947
129947
129947
129947
129786
129786
129786
129786
129786
129786
129786
129786
129786
129786
129786
129572
129572
129572
129572
129572
129572
129572
129572
129572
129572
129572
129572
129572
129572
129572
129572
129572
129572
129572
129572
128529
128529
128529
128529
128529
128529
128529
128529
128529
128529
128529
128529
128529
128529
128529
128529
128529
128529
127900
127900
127303
127303
127303
127303
127303
127303
127303
127303
127303
127301
127301
127301
127301
127301
127301
127301
127301
127301
126851
126851
126851
126851
126851
126851
126851
126851
126851
126629
126629
126629
126629
126629
126629
126472
126472
126472
126472
126472
126472
126472
126472
126472
126472
126472
126472
126472
126472
126472
126472
125957
125957
125957
125957
125957
125957
125957
125957
125957
125957
125957
125957
125957
125957
125957
125957
125957
125957
125957
125957
125277
125277
125277
125277
125277
125277
125277
125277
125277
125277
125277
125277
125277
125277
125277
125277
125277
125277
125273
125273
125273
123351
123351
123351
123351
123351
123351
123351
123351
123351
123351
123351
123351
123351
123351
123351
121494
121494
121494
121494
121494
121494
121494
121494
121494
121494
121494
118708
118708
118708
118708
118708
117760
117760
117760
117760
117760
117265
117265
117265
117265
117265
117265
117265
117265
117265
117265
117265
117265
117265
117232
117232
117232
117232
117232
117128
117128
117128
117128
116728
116728
116728
116728
116728
116728
116728
116728
116728
116728
116728
116728
116161
116161
116161
116161
116161
115791
115791
115791
115791
115791
115791
115791
115791
115791
115791
115791
115791
115791
115791
115791
115791
115791
115791
115791
115098
115098
115098
115098
115098
115098
115098
115098
114796
114796
114796
114737
114737
114737
114737
114737
114737
114737
114737
114737
114737
114737
114737
114737
114618
114618
114618
114618
114618
114618
114618
114618
114618
114618
114618
114618
114618
114618
114618
114587
111766
111766
111766
111766
111766
111766
111766
111766
111766
111766
111766
111766
111766
111766
111251
111251
111251
111251
111251
111251
111251
111251
111251
111251
111251
111251
111251
111251
110918
110918
110918
110918
110918
110918
110918
110918
110918
110918
110918
110918
110918
110918
110918
110918
108539
108539
108539
108539
108539
108539
108539
108539
108539
108539
108539
108539
108539
108539
108539
108539
107017
107017
107017
107017
107017
107017
106677
106677
106677
106677
106677
106677
106677
106677
106677
106498
106498
106498
106498
106498
106370
106370
106370
106370
106370
106370
106370
106370
106370
106370
106370
106370
106370
106370
106370
106195
106195
106195
106195
106195
106195
106195
106195
106195
106195
105623
105623
105623
105623
105623
105623
105623
105623
105623
105623
105623
105623
105623
105623
105623
105623
105623
105623
105623
105169
105169
105169
105169
105169
105169
105169
105169
104874
104874
104874
104874
104874
104874
104874
104874
103414
103414
103414
103414
103414
103414
103414
103414
103414
103414
103414
103414
103414
103414
103414
103414
102783
102284
102280
102280
102280
102280
102280
102280
102280
102280
102280
102280
102280
102280
102280
102280
102280
102280
102280
102280
102280
101664
101664
101664
101664
101664
101664
101664
101664
101664
101664
101664
101664
101664
101664
101664
101664
101664
101664
101664
100749
100749
100749
100749
100749
100749
100749
100535
100535
100535
100535
100535
100535
100535
100535
100535
100535
100535
99951
99951
99841
99841
99580
99580
99580
99580
97555
97555
97555
97555
97555
97555
97555
97555
97555
97555
97555
97555
97555
97555
97555
96889
96889
96889
96889
96889
96889
96889
96889
96889
96889
96889
96820
96820
96820
96820
96820
96820
96820
96820
96820
96820
96820
96820
96820
96820
95861
95861
95815
95815
95815
95815
95815
95815
95815
95815
95815
95815
95815
95815
95815
95815
95815
95815
95043
95043
94963
94963
94963
94963
94963
94963
94963
94963
93890
93890
93421
93421
93421
93421
93421
93421
93421
93421
93421
93421
93409
93409
93409
93409
93409
93409
93409
93409
93409
93409
93409
93409
93409
93070
93070
93070
93070
93070
93070
93070
93070
93070
93070
93070
93070
93070
93070
93070
93070
93070
93070
93070
92735
92735
92735
92735
92735
92376
92376
92376
92376
92376
92376
92376
92376
92376
92376
92376
92376
92376
92376
92376
92376
92376
92376
92140
92140
92140
92140
92140
92140
92140
92140
92140
92140
92140
92140
92140
92140
92140
92140
92140
92140
91329
91329
91329
91329
91329
91061
91061
91061
91061
91061
91061
91061
91061
91061
91061
91061
91061
91061
91061
91061
91061
90386
90386
90386
90386
90386
90386
90386
90386
90386
90386
90386
90386
90386
90386
90386
90386
90386
90386
90386
90386
89095
89095
89095
89095
89095
89095
89095
88844
88844
88844
88844
88844
88844
88844
88246
88246
88246
88246
88246
88246
88246
88246
88246
88246
88246
88246
88246
88246
88246
88246
88246
88246
88246
88246
88128
88128
88128
87475
87475
87475
87475
87475
87475
87321
87321
87321
87321
87321
87321
87321
87321
87321
87321
87321
87321
87321
87321
87321
87321
87321
87321
86726
86726
86726
86726
86726
86726
86726
86726
86726
86726
86726
86726
86726
86726
86726
86726
86180
86180
86180
86180
86180
86180
86180
85089
85089
85089
85089
85089
85089
85089
85089
85089
85089
85089
85089
85089
85089
85089
85089
84325
84325
84325
84325
84325
84325
84325
84325
84325
84325
84325
84325
84325
84325
84325
84325
84325
84325
83171
83171
83171
83171
83171
83171
83171
83171
83171
83171
83171
83171
83171
83171
83171
83171
83171
83171
83171
83171
83154
83154
83154
83154
83154
83154
83154
83154
83154
83154
83154
83154
83154
82322
81851
81851
81851
81462
81462
81462
81462
81462
81462
81462
81462
81462
81462
81462
81462
81462
81462
81462
81462
81462
81462
81462
81462
81007
81007
81007
81007
81007
81007
81007
81007
81007
81007
81007
81007
81007
80814
80814
80814
80814
80814
80814
80814
80814
80724
80724
80724
80724
80724
80724
80724
80724
80724
80724
80565
80565
80565
80565
80565
80565
80565
80565
80565
80565
80565
80565
80565
80565
80565
78229
78229
78152
77373
77373
77373
77373
77373
77373
77373
77373
77373
77373
77373
77373
77053
76942
76942
76942
76942
76942
76942
76942
76942
76942
76942
76942
76942
76942
76942
76942
76942
76942
76002
76002
75705
75705
75705
75705
75705
75705
75705
75705
75705
75705
75705
75705
75705
75705
75705
75705
75705
75705
75705
74400
74400
74400
74400
74400
74400
74400
74400
74336
74336
74336
74336
74336
74336
74336
74336
74336
74336
74336
74336
74336
74084
74084
74084
74084
74084
74084
74084
74084
74084
73343
73248
73248
73248
73248
73248
73248
73248
73248
73248
73248
73248
73248
73248
73248
72702
72512
72512
72512
72512
72512
72512
72512
72512
72512
72512
72512
72512
72512
72512
72418
72418
72418
72418
72418
72418
72418
72418
72418
72418
72418
72418
72418
72418
72418
72418
70832
70832
70832
70832
70832
70832
69853
69853
69853
69853
69853
69853
69853
67721
67721
67721
66926
66926
66926
66926
66926
66926
66926
66926
66926
66926
66926
66926
66926
66926
66926
66926
66926
66926
66926
66783
66783
66783
66783
66783
66783
66783
66783
66783
66783
66783
66783
